% File represents an instance of a Composite Structure problem to be solved by a CP framework
% Created on 2025-03-26 10:42:02.196
T = 50;
n = 36;
m = 60;
edges = [(1, 2),
(7, 8),
(13, 14),
(19, 20),
(26, 25),
(31, 32),
(2, 3),
(8, 9),
(14, 15),
(20, 21),
(26, 27),
(33, 32),
(4, 3),
(10, 9),
(15, 16),
(21, 22),
(27, 28),
(33, 34),
(5, 4),
(10, 11),
(16, 17),
(22, 23),
(28, 29),
(34, 35),
(5, 6),
(11, 12),
(17, 18),
(23, 24),
(30, 29),
(36, 35),
(1, 7),
(13, 7),
(13, 19),
(25, 19),
(31, 25),
(2, 8),
(14, 8),
(14, 20),
(26, 20),
(26, 32),
(3, 9),
(15, 9),
(15, 21),
(27, 21),
(33, 27),
(4, 10),
(10, 16),
(16, 22),
(28, 22),
(34, 28),
(5, 11),
(11, 17),
(17, 23),
(29, 23),
(35, 29),
(6, 12),
(12, 18),
(18, 24),
(30, 24),
(36, 30)];
counts = [|8, 16, 8, 18,
|8, 16, 8, 12,
|8, 16, 8, 6,
|10, 16, 10, 8,
|10, 18, 10, 8,
|10, 14, 10, 6,
|8, 16, 8, 12,
|8, 16, 8, 8,
|8, 16, 8, 4,
|10, 16, 10, 6,
|10, 16, 10, 4,
|10, 12, 10, 4,
|8, 18, 8, 12,
|8, 16, 8, 10,
|8, 16, 8, 8,
|8, 16, 8, 6,
|8, 14, 8, 4,
|8, 12, 8, 4,
|8, 16, 8, 10,
|8, 14, 8, 10,
|8, 14, 8, 8,
|8, 14, 8, 2,
|8, 12, 8, 2,
|8, 10, 8, 2,
|8, 18, 8, 10,
|8, 18, 8, 12,
|8, 18, 8, 8,
|8, 18, 8, 2,
|8, 14, 8, 2,
|8, 16, 8, 2,
|8, 20, 8, 10,
|8, 18, 8, 8,
|8, 22, 8, 8,
|8, 18, 8, 8,
|8, 18, 8, 2,
|8, 18, 8, 4|];
